/*
 * ECE650F21
 *
 * This file contains several pairs of:
 *      - the adjacency matrix of an indirected graph, followed by,
 *      - the output of the reduction from vc to cnf-sat formatted
 *        in CNF DIMACS format.
 *

 * We expect the transpose of the adjancency matrix to be itself because the
 * graph is undirected. To deduce the size of the vertex cover (i.e., k), divide
 * the number of variables (atoms) in the cnf-sat instance by the number of
 * vertices. (Recall that our reduction outputs a cnf-sat spec with n*k atoms,
 * where n is the number of vertices.)

 * The DIMACS input format is:
 *     1st line is: p cnf <# atoms> <# clauses>
 *     Then, we have each clause, one per line, terminated by 0.
 *     More details at
 *     http://www.satcompetition.org/2009/format-benchmarks2009.html
 *
 */

------------------------------------------------------------------------

/** Adjacency matrix for a graph with 3 vertecies */
0 1 1
1 0 0
1 0 0

/** Vertex cover of size k = (3/3) = 1 for the above graph */
p cnf 3 6
1 2 3 0
-1 -2 0
-1 -3 0
-2 -3 0
2 1 0
3 1 0

------------------------------------------------------------------------

/** Adjacency matrix for a graph with 3 vertecies */
0 1 1
1 0 0
1 0 0

/** Vertex cover of size k = (6/3) = 2 for the above graph */
p cnf 6 13
1 3 5 0
2 4 6 0
-1 -2 0
-3 -4 0
-5 -6 0
-1 -3 0
-1 -5 0
-3 -5 0
-2 -4 0
-2 -6 0
-4 -6 0
3 1 4 2 0
5 1 6 2 0

------------------------------------------------------------------------

0 1 1
1 0 1
1 1 0

p cnf 6 14
1 3 5 0
2 4 6 0
-1 -2 0
-3 -4 0
-5 -6 0
-1 -3 0
-1 -5 0
-3 -5 0
-2 -4 0
-2 -6 0
-4 -6 0
3 1 4 2 0
5 1 6 2 0
5 3 6 4 0

------------------------------------------------------------------------

0 0 0 1 1
0 0 0 1 1
0 0 0 1 0
1 1 1 0 1
1 1 0 1 0

p cnf 15 54
1 4 7 10 13 0
2 5 8 11 14 0
3 6 9 12 15 0
-1 -2 0
-1 -3 0
-2 -3 0
-4 -5 0
-4 -6 0
-5 -6 0
-7 -8 0
-7 -9 0
-8 -9 0
-10 -11 0
-10 -12 0
-11 -12 0
-13 -14 0
-13 -15 0
-14 -15 0
-1 -4 0
-1 -7 0
-1 -10 0
-1 -13 0
-4 -7 0
-4 -10 0
-4 -13 0
-7 -10 0
-7 -13 0
-10 -13 0
-2 -5 0
-2 -8 0
-2 -11 0
-2 -14 0
-5 -8 0
-5 -11 0
-5 -14 0
-8 -11 0
-8 -14 0
-11 -14 0
-3 -6 0
-3 -9 0
-3 -12 0
-3 -15 0
-6 -9 0
-6 -12 0
-6 -15 0
-9 -12 0
-9 -15 0
-12 -15 0
10 1 11 2 12 3 0
10 4 11 5 12 6 0
10 7 11 8 12 9 0
13 1 14 2 15 3 0
13 4 14 5 15 6 0
13 10 14 11 15 12 0

------------------------------------------------------------------------

0 0 0 1 1
0 0 0 1 1
0 0 0 1 0
1 1 1 0 1
1 1 0 1 0

p cnf 20 80
1 5 9 13 17 0
2 6 10 14 18 0
3 7 11 15 19 0
4 8 12 16 20 0
-1 -2 0
-1 -3 0
-1 -4 0
-2 -3 0
-2 -4 0
-3 -4 0
-5 -6 0
-5 -7 0
-5 -8 0
-6 -7 0
-6 -8 0
-7 -8 0
-9 -10 0
-9 -11 0
-9 -12 0
-10 -11 0
-10 -12 0
-11 -12 0
-13 -14 0
-13 -15 0
-13 -16 0
-14 -15 0
-14 -16 0
-15 -16 0
-17 -18 0
-17 -19 0
-17 -20 0
-18 -19 0
-18 -20 0
-19 -20 0
-1 -5 0
-1 -9 0
-1 -13 0
-1 -17 0
-5 -9 0
-5 -13 0
-5 -17 0
-9 -13 0
-9 -17 0
-13 -17 0
-2 -6 0
-2 -10 0
-2 -14 0
-2 -18 0
-6 -10 0
-6 -14 0
-6 -18 0
-10 -14 0
-10 -18 0
-14 -18 0
-3 -7 0
-3 -11 0
-3 -15 0
-3 -19 0
-7 -11 0
-7 -15 0
-7 -19 0
-11 -15 0
-11 -19 0
-15 -19 0
-4 -8 0
-4 -12 0
-4 -16 0
-4 -20 0
-8 -12 0
-8 -16 0
-8 -20 0
-12 -16 0
-12 -20 0
-16 -20 0
13 1 14 2 15 3 16 4 0
13 5 14 6 15 7 16 8 0
13 9 14 10 15 11 16 12 0
17 1 18 2 19 3 20 4 0
17 5 18 6 19 7 20 8 0
17 13 18 14 19 15 20 16 0

------------------------------------------------------------------------

0 1 0 0 0
1 0 0 0 0
0 0 0 1 1
0 0 1 0 0
0 0 1 0 0

p cnf 10 30
1 3 5 7 9 0
2 4 6 8 10 0
-1 -2 0
-3 -4 0
-5 -6 0
-7 -8 0
-9 -10 0
-1 -3 0
-1 -5 0
-1 -7 0
-1 -9 0
-3 -5 0
-3 -7 0
-3 -9 0
-5 -7 0
-5 -9 0
-7 -9 0
-2 -4 0
-2 -6 0
-2 -8 0
-2 -10 0
-4 -6 0
-4 -8 0
-4 -10 0
-6 -8 0
-6 -10 0
-8 -10 0
3 1 4 2 0
7 5 8 6 0
9 5 10 6 0

------------------------------------------------------------------------

0 1 0 0 0 0 0 0 0 0
1 0 0 0 0 0 0 0 0 0
0 0 0 1 0 0 0 0 0 0
0 0 1 0 0 0 0 0 0 0
0 0 0 0 0 1 0 0 0 0
0 0 0 0 1 0 0 0 0 0
0 0 0 0 0 0 0 1 0 0
0 0 0 0 0 0 1 0 0 0
0 0 0 0 0 0 0 0 0 1
0 0 0 0 0 0 0 0 1 0

p cnf 40 249
1 5 9 13 17 21 25 29 33 37 0
2 6 10 14 18 22 26 30 34 38 0
3 7 11 15 19 23 27 31 35 39 0
4 8 12 16 20 24 28 32 36 40 0
-1 -2 0
-1 -3 0
-1 -4 0
-2 -3 0
-2 -4 0
-3 -4 0
-5 -6 0
-5 -7 0
-5 -8 0
-6 -7 0
-6 -8 0
-7 -8 0
-9 -10 0
-9 -11 0
-9 -12 0
-10 -11 0
-10 -12 0
-11 -12 0
-13 -14 0
-13 -15 0
-13 -16 0
-14 -15 0
-14 -16 0
-15 -16 0
-17 -18 0
-17 -19 0
-17 -20 0
-18 -19 0
-18 -20 0
-19 -20 0
-21 -22 0
-21 -23 0
-21 -24 0
-22 -23 0
-22 -24 0
-23 -24 0
-25 -26 0
-25 -27 0
-25 -28 0
-26 -27 0
-26 -28 0
-27 -28 0
-29 -30 0
-29 -31 0
-29 -32 0
-30 -31 0
-30 -32 0
-31 -32 0
-33 -34 0
-33 -35 0
-33 -36 0
-34 -35 0
-34 -36 0
-35 -36 0
-37 -38 0
-37 -39 0
-37 -40 0
-38 -39 0
-38 -40 0
-39 -40 0
-1 -5 0
-1 -9 0
-1 -13 0
-1 -17 0
-1 -21 0
-1 -25 0
-1 -29 0
-1 -33 0
-1 -37 0
-5 -9 0
-5 -13 0
-5 -17 0
-5 -21 0
-5 -25 0
-5 -29 0
-5 -33 0
-5 -37 0
-9 -13 0
-9 -17 0
-9 -21 0
-9 -25 0
-9 -29 0
-9 -33 0
-9 -37 0
-13 -17 0
-13 -21 0
-13 -25 0
-13 -29 0
-13 -33 0
-13 -37 0
-17 -21 0
-17 -25 0
-17 -29 0
-17 -33 0
-17 -37 0
-21 -25 0
-21 -29 0
-21 -33 0
-21 -37 0
-25 -29 0
-25 -33 0
-25 -37 0
-29 -33 0
-29 -37 0
-33 -37 0
-2 -6 0
-2 -10 0
-2 -14 0
-2 -18 0
-2 -22 0
-2 -26 0
-2 -30 0
-2 -34 0
-2 -38 0
-6 -10 0
-6 -14 0
-6 -18 0
-6 -22 0
-6 -26 0
-6 -30 0
-6 -34 0
-6 -38 0
-10 -14 0
-10 -18 0
-10 -22 0
-10 -26 0
-10 -30 0
-10 -34 0
-10 -38 0
-14 -18 0
-14 -22 0
-14 -26 0
-14 -30 0
-14 -34 0
-14 -38 0
-18 -22 0
-18 -26 0
-18 -30 0
-18 -34 0
-18 -38 0
-22 -26 0
-22 -30 0
-22 -34 0
-22 -38 0
-26 -30 0
-26 -34 0
-26 -38 0
-30 -34 0
-30 -38 0
-34 -38 0
-3 -7 0
-3 -11 0
-3 -15 0
-3 -19 0
-3 -23 0
-3 -27 0
-3 -31 0
-3 -35 0
-3 -39 0
-7 -11 0
-7 -15 0
-7 -19 0
-7 -23 0
-7 -27 0
-7 -31 0
-7 -35 0
-7 -39 0
-11 -15 0
-11 -19 0
-11 -23 0
-11 -27 0
-11 -31 0
-11 -35 0
-11 -39 0
-15 -19 0
-15 -23 0
-15 -27 0
-15 -31 0
-15 -35 0
-15 -39 0
-19 -23 0
-19 -27 0
-19 -31 0
-19 -35 0
-19 -39 0
-23 -27 0
-23 -31 0
-23 -35 0
-23 -39 0
-27 -31 0
-27 -35 0
-27 -39 0
-31 -35 0
-31 -39 0
-35 -39 0
-4 -8 0
-4 -12 0
-4 -16 0
-4 -20 0
-4 -24 0
-4 -28 0
-4 -32 0
-4 -36 0
-4 -40 0
-8 -12 0
-8 -16 0
-8 -20 0
-8 -24 0
-8 -28 0
-8 -32 0
-8 -36 0
-8 -40 0
-12 -16 0
-12 -20 0
-12 -24 0
-12 -28 0
-12 -32 0
-12 -36 0
-12 -40 0
-16 -20 0
-16 -24 0
-16 -28 0
-16 -32 0
-16 -36 0
-16 -40 0
-20 -24 0
-20 -28 0
-20 -32 0
-20 -36 0
-20 -40 0
-24 -28 0
-24 -32 0
-24 -36 0
-24 -40 0
-28 -32 0
-28 -36 0
-28 -40 0
-32 -36 0
-32 -40 0
-36 -40 0
5 1 6 2 7 3 8 4 0
13 9 14 10 15 11 16 12 0
21 17 22 18 23 19 24 20 0
29 25 30 26 31 27 32 28 0
37 33 38 34 39 35 40 36 0

------------------------------------------------------------------------

0 1 0 0 0 0 0 0 0 0
1 0 0 0 0 0 0 0 0 0
0 0 0 1 0 0 0 0 0 0
0 0 1 0 0 0 0 0 0 0
0 0 0 0 0 1 0 0 0 0
0 0 0 0 1 0 0 0 0 0
0 0 0 0 0 0 0 1 0 0
0 0 0 0 0 0 1 0 0 0
0 0 0 0 0 0 0 0 0 1
0 0 0 0 0 0 0 0 1 0

p cnf 50 335
1 6 11 16 21 26 31 36 41 46 0
2 7 12 17 22 27 32 37 42 47 0
3 8 13 18 23 28 33 38 43 48 0
4 9 14 19 24 29 34 39 44 49 0
5 10 15 20 25 30 35 40 45 50 0
-1 -2 0
-1 -3 0
-1 -4 0
-1 -5 0
-2 -3 0
-2 -4 0
-2 -5 0
-3 -4 0
-3 -5 0
-4 -5 0
-6 -7 0
-6 -8 0
-6 -9 0
-6 -10 0
-7 -8 0
-7 -9 0
-7 -10 0
-8 -9 0
-8 -10 0
-9 -10 0
-11 -12 0
-11 -13 0
-11 -14 0
-11 -15 0
-12 -13 0
-12 -14 0
-12 -15 0
-13 -14 0
-13 -15 0
-14 -15 0
-16 -17 0
-16 -18 0
-16 -19 0
-16 -20 0
-17 -18 0
-17 -19 0
-17 -20 0
-18 -19 0
-18 -20 0
-19 -20 0
-21 -22 0
-21 -23 0
-21 -24 0
-21 -25 0
-22 -23 0
-22 -24 0
-22 -25 0
-23 -24 0
-23 -25 0
-24 -25 0
-26 -27 0
-26 -28 0
-26 -29 0
-26 -30 0
-27 -28 0
-27 -29 0
-27 -30 0
-28 -29 0
-28 -30 0
-29 -30 0
-31 -32 0
-31 -33 0
-31 -34 0
-31 -35 0
-32 -33 0
-32 -34 0
-32 -35 0
-33 -34 0
-33 -35 0
-34 -35 0
-36 -37 0
-36 -38 0
-36 -39 0
-36 -40 0
-37 -38 0
-37 -39 0
-37 -40 0
-38 -39 0
-38 -40 0
-39 -40 0
-41 -42 0
-41 -43 0
-41 -44 0
-41 -45 0
-42 -43 0
-42 -44 0
-42 -45 0
-43 -44 0
-43 -45 0
-44 -45 0
-46 -47 0
-46 -48 0
-46 -49 0
-46 -50 0
-47 -48 0
-47 -49 0
-47 -50 0
-48 -49 0
-48 -50 0
-49 -50 0
-1 -6 0
-1 -11 0
-1 -16 0
-1 -21 0
-1 -26 0
-1 -31 0
-1 -36 0
-1 -41 0
-1 -46 0
-6 -11 0
-6 -16 0
-6 -21 0
-6 -26 0
-6 -31 0
-6 -36 0
-6 -41 0
-6 -46 0
-11 -16 0
-11 -21 0
-11 -26 0
-11 -31 0
-11 -36 0
-11 -41 0
-11 -46 0
-16 -21 0
-16 -26 0
-16 -31 0
-16 -36 0
-16 -41 0
-16 -46 0
-21 -26 0
-21 -31 0
-21 -36 0
-21 -41 0
-21 -46 0
-26 -31 0
-26 -36 0
-26 -41 0
-26 -46 0
-31 -36 0
-31 -41 0
-31 -46 0
-36 -41 0
-36 -46 0
-41 -46 0
-2 -7 0
-2 -12 0
-2 -17 0
-2 -22 0
-2 -27 0
-2 -32 0
-2 -37 0
-2 -42 0
-2 -47 0
-7 -12 0
-7 -17 0
-7 -22 0
-7 -27 0
-7 -32 0
-7 -37 0
-7 -42 0
-7 -47 0
-12 -17 0
-12 -22 0
-12 -27 0
-12 -32 0
-12 -37 0
-12 -42 0
-12 -47 0
-17 -22 0
-17 -27 0
-17 -32 0
-17 -37 0
-17 -42 0
-17 -47 0
-22 -27 0
-22 -32 0
-22 -37 0
-22 -42 0
-22 -47 0
-27 -32 0
-27 -37 0
-27 -42 0
-27 -47 0
-32 -37 0
-32 -42 0
-32 -47 0
-37 -42 0
-37 -47 0
-42 -47 0
-3 -8 0
-3 -13 0
-3 -18 0
-3 -23 0
-3 -28 0
-3 -33 0
-3 -38 0
-3 -43 0
-3 -48 0
-8 -13 0
-8 -18 0
-8 -23 0
-8 -28 0
-8 -33 0
-8 -38 0
-8 -43 0
-8 -48 0
-13 -18 0
-13 -23 0
-13 -28 0
-13 -33 0
-13 -38 0
-13 -43 0
-13 -48 0
-18 -23 0
-18 -28 0
-18 -33 0
-18 -38 0
-18 -43 0
-18 -48 0
-23 -28 0
-23 -33 0
-23 -38 0
-23 -43 0
-23 -48 0
-28 -33 0
-28 -38 0
-28 -43 0
-28 -48 0
-33 -38 0
-33 -43 0
-33 -48 0
-38 -43 0
-38 -48 0
-43 -48 0
-4 -9 0
-4 -14 0
-4 -19 0
-4 -24 0
-4 -29 0
-4 -34 0
-4 -39 0
-4 -44 0
-4 -49 0
-9 -14 0
-9 -19 0
-9 -24 0
-9 -29 0
-9 -34 0
-9 -39 0
-9 -44 0
-9 -49 0
-14 -19 0
-14 -24 0
-14 -29 0
-14 -34 0
-14 -39 0
-14 -44 0
-14 -49 0
-19 -24 0
-19 -29 0
-19 -34 0
-19 -39 0
-19 -44 0
-19 -49 0
-24 -29 0
-24 -34 0
-24 -39 0
-24 -44 0
-24 -49 0
-29 -34 0
-29 -39 0
-29 -44 0
-29 -49 0
-34 -39 0
-34 -44 0
-34 -49 0
-39 -44 0
-39 -49 0
-44 -49 0
-5 -10 0
-5 -15 0
-5 -20 0
-5 -25 0
-5 -30 0
-5 -35 0
-5 -40 0
-5 -45 0
-5 -50 0
-10 -15 0
-10 -20 0
-10 -25 0
-10 -30 0
-10 -35 0
-10 -40 0
-10 -45 0
-10 -50 0
-15 -20 0
-15 -25 0
-15 -30 0
-15 -35 0
-15 -40 0
-15 -45 0
-15 -50 0
-20 -25 0
-20 -30 0
-20 -35 0
-20 -40 0
-20 -45 0
-20 -50 0
-25 -30 0
-25 -35 0
-25 -40 0
-25 -45 0
-25 -50 0
-30 -35 0
-30 -40 0
-30 -45 0
-30 -50 0
-35 -40 0
-35 -45 0
-35 -50 0
-40 -45 0
-40 -50 0
-45 -50 0
6 1 7 2 8 3 9 4 10 5 0
16 11 17 12 18 13 19 14 20 15 0
26 21 27 22 28 23 29 24 30 25 0
36 31 37 32 38 33 39 34 40 35 0
46 41 47 42 48 43 49 44 50 45 0

------------------------------------------------------------------------

0 1 0 0 0 0 0 0 0 0
1 0 0 0 0 0 0 0 0 0
0 0 0 1 0 0 0 0 0 0
0 0 1 0 0 0 0 0 0 0
0 0 0 0 0 1 0 0 0 0
0 0 0 0 1 0 0 0 0 0
0 0 0 0 0 0 0 1 0 0
0 0 0 0 0 0 1 0 0 0
0 0 0 0 0 0 0 0 0 1
0 0 0 0 0 0 0 0 1 0

p cnf 70 537
1 8 15 22 29 36 43 50 57 64 0
2 9 16 23 30 37 44 51 58 65 0
3 10 17 24 31 38 45 52 59 66 0
4 11 18 25 32 39 46 53 60 67 0
5 12 19 26 33 40 47 54 61 68 0
6 13 20 27 34 41 48 55 62 69 0
7 14 21 28 35 42 49 56 63 70 0
-1 -2 0
-1 -3 0
-1 -4 0
-1 -5 0
-1 -6 0
-1 -7 0
-2 -3 0
-2 -4 0
-2 -5 0
-2 -6 0
-2 -7 0
-3 -4 0
-3 -5 0
-3 -6 0
-3 -7 0
-4 -5 0
-4 -6 0
-4 -7 0
-5 -6 0
-5 -7 0
-6 -7 0
-8 -9 0
-8 -10 0
-8 -11 0
-8 -12 0
-8 -13 0
-8 -14 0
-9 -10 0
-9 -11 0
-9 -12 0
-9 -13 0
-9 -14 0
-10 -11 0
-10 -12 0
-10 -13 0
-10 -14 0
-11 -12 0
-11 -13 0
-11 -14 0
-12 -13 0
-12 -14 0
-13 -14 0
-15 -16 0
-15 -17 0
-15 -18 0
-15 -19 0
-15 -20 0
-15 -21 0
-16 -17 0
-16 -18 0
-16 -19 0
-16 -20 0
-16 -21 0
-17 -18 0
-17 -19 0
-17 -20 0
-17 -21 0
-18 -19 0
-18 -20 0
-18 -21 0
-19 -20 0
-19 -21 0
-20 -21 0
-22 -23 0
-22 -24 0
-22 -25 0
-22 -26 0
-22 -27 0
-22 -28 0
-23 -24 0
-23 -25 0
-23 -26 0
-23 -27 0
-23 -28 0
-24 -25 0
-24 -26 0
-24 -27 0
-24 -28 0
-25 -26 0
-25 -27 0
-25 -28 0
-26 -27 0
-26 -28 0
-27 -28 0
-29 -30 0
-29 -31 0
-29 -32 0
-29 -33 0
-29 -34 0
-29 -35 0
-30 -31 0
-30 -32 0
-30 -33 0
-30 -34 0
-30 -35 0
-31 -32 0
-31 -33 0
-31 -34 0
-31 -35 0
-32 -33 0
-32 -34 0
-32 -35 0
-33 -34 0
-33 -35 0
-34 -35 0
-36 -37 0
-36 -38 0
-36 -39 0
-36 -40 0
-36 -41 0
-36 -42 0
-37 -38 0
-37 -39 0
-37 -40 0
-37 -41 0
-37 -42 0
-38 -39 0
-38 -40 0
-38 -41 0
-38 -42 0
-39 -40 0
-39 -41 0
-39 -42 0
-40 -41 0
-40 -42 0
-41 -42 0
-43 -44 0
-43 -45 0
-43 -46 0
-43 -47 0
-43 -48 0
-43 -49 0
-44 -45 0
-44 -46 0
-44 -47 0
-44 -48 0
-44 -49 0
-45 -46 0
-45 -47 0
-45 -48 0
-45 -49 0
-46 -47 0
-46 -48 0
-46 -49 0
-47 -48 0
-47 -49 0
-48 -49 0
-50 -51 0
-50 -52 0
-50 -53 0
-50 -54 0
-50 -55 0
-50 -56 0
-51 -52 0
-51 -53 0
-51 -54 0
-51 -55 0
-51 -56 0
-52 -53 0
-52 -54 0
-52 -55 0
-52 -56 0
-53 -54 0
-53 -55 0
-53 -56 0
-54 -55 0
-54 -56 0
-55 -56 0
-57 -58 0
-57 -59 0
-57 -60 0
-57 -61 0
-57 -62 0
-57 -63 0
-58 -59 0
-58 -60 0
-58 -61 0
-58 -62 0
-58 -63 0
-59 -60 0
-59 -61 0
-59 -62 0
-59 -63 0
-60 -61 0
-60 -62 0
-60 -63 0
-61 -62 0
-61 -63 0
-62 -63 0
-64 -65 0
-64 -66 0
-64 -67 0
-64 -68 0
-64 -69 0
-64 -70 0
-65 -66 0
-65 -67 0
-65 -68 0
-65 -69 0
-65 -70 0
-66 -67 0
-66 -68 0
-66 -69 0
-66 -70 0
-67 -68 0
-67 -69 0
-67 -70 0
-68 -69 0
-68 -70 0
-69 -70 0
-1 -8 0
-1 -15 0
-1 -22 0
-1 -29 0
-1 -36 0
-1 -43 0
-1 -50 0
-1 -57 0
-1 -64 0
-8 -15 0
-8 -22 0
-8 -29 0
-8 -36 0
-8 -43 0
-8 -50 0
-8 -57 0
-8 -64 0
-15 -22 0
-15 -29 0
-15 -36 0
-15 -43 0
-15 -50 0
-15 -57 0
-15 -64 0
-22 -29 0
-22 -36 0
-22 -43 0
-22 -50 0
-22 -57 0
-22 -64 0
-29 -36 0
-29 -43 0
-29 -50 0
-29 -57 0
-29 -64 0
-36 -43 0
-36 -50 0
-36 -57 0
-36 -64 0
-43 -50 0
-43 -57 0
-43 -64 0
-50 -57 0
-50 -64 0
-57 -64 0
-2 -9 0
-2 -16 0
-2 -23 0
-2 -30 0
-2 -37 0
-2 -44 0
-2 -51 0
-2 -58 0
-2 -65 0
-9 -16 0
-9 -23 0
-9 -30 0
-9 -37 0
-9 -44 0
-9 -51 0
-9 -58 0
-9 -65 0
-16 -23 0
-16 -30 0
-16 -37 0
-16 -44 0
-16 -51 0
-16 -58 0
-16 -65 0
-23 -30 0
-23 -37 0
-23 -44 0
-23 -51 0
-23 -58 0
-23 -65 0
-30 -37 0
-30 -44 0
-30 -51 0
-30 -58 0
-30 -65 0
-37 -44 0
-37 -51 0
-37 -58 0
-37 -65 0
-44 -51 0
-44 -58 0
-44 -65 0
-51 -58 0
-51 -65 0
-58 -65 0
-3 -10 0
-3 -17 0
-3 -24 0
-3 -31 0
-3 -38 0
-3 -45 0
-3 -52 0
-3 -59 0
-3 -66 0
-10 -17 0
-10 -24 0
-10 -31 0
-10 -38 0
-10 -45 0
-10 -52 0
-10 -59 0
-10 -66 0
-17 -24 0
-17 -31 0
-17 -38 0
-17 -45 0
-17 -52 0
-17 -59 0
-17 -66 0
-24 -31 0
-24 -38 0
-24 -45 0
-24 -52 0
-24 -59 0
-24 -66 0
-31 -38 0
-31 -45 0
-31 -52 0
-31 -59 0
-31 -66 0
-38 -45 0
-38 -52 0
-38 -59 0
-38 -66 0
-45 -52 0
-45 -59 0
-45 -66 0
-52 -59 0
-52 -66 0
-59 -66 0
-4 -11 0
-4 -18 0
-4 -25 0
-4 -32 0
-4 -39 0
-4 -46 0
-4 -53 0
-4 -60 0
-4 -67 0
-11 -18 0
-11 -25 0
-11 -32 0
-11 -39 0
-11 -46 0
-11 -53 0
-11 -60 0
-11 -67 0
-18 -25 0
-18 -32 0
-18 -39 0
-18 -46 0
-18 -53 0
-18 -60 0
-18 -67 0
-25 -32 0
-25 -39 0
-25 -46 0
-25 -53 0
-25 -60 0
-25 -67 0
-32 -39 0
-32 -46 0
-32 -53 0
-32 -60 0
-32 -67 0
-39 -46 0
-39 -53 0
-39 -60 0
-39 -67 0
-46 -53 0
-46 -60 0
-46 -67 0
-53 -60 0
-53 -67 0
-60 -67 0
-5 -12 0
-5 -19 0
-5 -26 0
-5 -33 0
-5 -40 0
-5 -47 0
-5 -54 0
-5 -61 0
-5 -68 0
-12 -19 0
-12 -26 0
-12 -33 0
-12 -40 0
-12 -47 0
-12 -54 0
-12 -61 0
-12 -68 0
-19 -26 0
-19 -33 0
-19 -40 0
-19 -47 0
-19 -54 0
-19 -61 0
-19 -68 0
-26 -33 0
-26 -40 0
-26 -47 0
-26 -54 0
-26 -61 0
-26 -68 0
-33 -40 0
-33 -47 0
-33 -54 0
-33 -61 0
-33 -68 0
-40 -47 0
-40 -54 0
-40 -61 0
-40 -68 0
-47 -54 0
-47 -61 0
-47 -68 0
-54 -61 0
-54 -68 0
-61 -68 0
-6 -13 0
-6 -20 0
-6 -27 0
-6 -34 0
-6 -41 0
-6 -48 0
-6 -55 0
-6 -62 0
-6 -69 0
-13 -20 0
-13 -27 0
-13 -34 0
-13 -41 0
-13 -48 0
-13 -55 0
-13 -62 0
-13 -69 0
-20 -27 0
-20 -34 0
-20 -41 0
-20 -48 0
-20 -55 0
-20 -62 0
-20 -69 0
-27 -34 0
-27 -41 0
-27 -48 0
-27 -55 0
-27 -62 0
-27 -69 0
-34 -41 0
-34 -48 0
-34 -55 0
-34 -62 0
-34 -69 0
-41 -48 0
-41 -55 0
-41 -62 0
-41 -69 0
-48 -55 0
-48 -62 0
-48 -69 0
-55 -62 0
-55 -69 0
-62 -69 0
-7 -14 0
-7 -21 0
-7 -28 0
-7 -35 0
-7 -42 0
-7 -49 0
-7 -56 0
-7 -63 0
-7 -70 0
-14 -21 0
-14 -28 0
-14 -35 0
-14 -42 0
-14 -49 0
-14 -56 0
-14 -63 0
-14 -70 0
-21 -28 0
-21 -35 0
-21 -42 0
-21 -49 0
-21 -56 0
-21 -63 0
-21 -70 0
-28 -35 0
-28 -42 0
-28 -49 0
-28 -56 0
-28 -63 0
-28 -70 0
-35 -42 0
-35 -49 0
-35 -56 0
-35 -63 0
-35 -70 0
-42 -49 0
-42 -56 0
-42 -63 0
-42 -70 0
-49 -56 0
-49 -63 0
-49 -70 0
-56 -63 0
-56 -70 0
-63 -70 0
8 1 9 2 10 3 11 4 12 5 13 6 14 7 0
22 15 23 16 24 17 25 18 26 19 27 20 28 21 0
36 29 37 30 38 31 39 32 40 33 41 34 42 35 0
50 43 51 44 52 45 53 46 54 47 55 48 56 49 0
64 57 65 58 66 59 67 60 68 61 69 62 70 63 0

------------------------------------------------------------------------
